p cnf 621
-11 -193
-12 -196
-13 -199
-14 -202
-15 -205
-16 -208
-17 -211
-18 -214
-19 -217
-20 -220
-21 221
-22 222
-23 223
-24 224
-25 -12
-25 -13
12 13 25
-26 -14
-26 -15
14 15 26
-27 -16
-27 -17
16 17 27
-28 -18
-28 -19
18 19 28
-29 -20
-29 -21
20 21 29
-30 -22
-30 -23
22 23 30
-31 25
-31 26
-25 -26 31
-32 27
-32 28
-27 -28 32
-33 29
-33 30
-29 -30 33
-34 31
-34 32
-31 -32 34
-35 -24
-35 33
24 -33 35
-36 34
-36 35
-34 -35 36
-37 -11
-37 12
11 -12 37
-38 11
-38 -12
-11 12 38
-39 -37
-39 -38
37 38 39
-40 11
-40 12
-11 -12 40
-41 -11
-41 -39
11 39 41
-42 11
-42 39
-11 -39 42
-43 -41
-43 -42
41 42 43
-44 11
-44 -39
-11 39 44
-45 -40
-45 -44
40 44 45
-46 -12
-46 13
12 -13 46
-47 12
-47 -13
-12 13 47
-48 -46
-48 -47
46 47 48
-49 12
-49 13
-12 -13 49
-50 45
-50 -48
-45 48 50
-51 -45
-51 48
45 -48 51
-52 -50
-52 -51
50 51 52
-53 -45
-53 -48
45 48 53
-54 -49
-54 -53
49 53 54
-55 -13
-55 14
13 -14 55
-56 13
-56 -14
-13 14 56
-57 -55
-57 -56
55 56 57
-58 13
-58 14
-13 -14 58
-59 54
-59 -57
-54 57 59
-60 -54
-60 57
54 -57 60
-61 -59
-61 -60
59 60 61
-62 -54
-62 -57
54 57 62
-63 -58
-63 -62
58 62 63
-64 -14
-64 15
14 -15 64
-65 14
-65 -15
-14 15 65
-66 -64
-66 -65
64 65 66
-67 14
-67 15
-14 -15 67
-68 63
-68 -66
-63 66 68
-69 -63
-69 66
63 -66 69
-70 -68
-70 -69
68 69 70
-71 -63
-71 -66
63 66 71
-72 -67
-72 -71
67 71 72
-73 -15
-73 16
15 -16 73
-74 15
-74 -16
-15 16 74
-75 -73
-75 -74
73 74 75
-76 15
-76 16
-15 -16 76
-77 72
-77 -75
-72 75 77
-78 -72
-78 75
72 -75 78
-79 -77
-79 -78
77 78 79
-80 -72
-80 -75
72 75 80
-81 -76
-81 -80
76 80 81
-82 -16
-82 17
16 -17 82
-83 16
-83 -17
-16 17 83
-84 -82
-84 -83
82 83 84
-85 16
-85 17
-16 -17 85
-86 81
-86 -84
-81 84 86
-87 -81
-87 84
81 -84 87
-88 -86
-88 -87
86 87 88
-89 -81
-89 -84
81 84 89
-90 -85
-90 -89
85 89 90
-91 -17
-91 18
17 -18 91
-92 17
-92 -18
-17 18 92
-93 -91
-93 -92
91 92 93
-94 17
-94 18
-17 -18 94
-95 90
-95 -93
-90 93 95
-96 -90
-96 93
90 -93 96
-97 -95
-97 -96
95 96 97
-98 -90
-98 -93
90 93 98
-99 -94
-99 -98
94 98 99
-100 -18
-100 19
18 -19 100
-101 18
-101 -19
-18 19 101
-102 -100
-102 -101
100 101 102
-103 18
-103 19
-18 -19 103
-104 99
-104 -102
-99 102 104
-105 -99
-105 102
99 -102 105
-106 -104
-106 -105
104 105 106
-107 -99
-107 -102
99 102 107
-108 -103
-108 -107
103 107 108
-109 -19
-109 20
19 -20 109
-110 19
-110 -20
-19 20 110
-111 -109
-111 -110
109 110 111
-112 19
-112 20
-19 -20 112
-113 108
-113 -111
-108 111 113
-114 -108
-114 111
108 -111 114
-115 -113
-115 -114
113 114 115
-116 -108
-116 -111
108 111 116
-117 -112
-117 -116
112 116 117
-118 -20
-118 21
20 -21 118
-119 20
-119 -21
-20 21 119
-120 -118
-120 -119
118 119 120
-121 20
-121 21
-20 -21 121
-122 117
-122 -120
-117 120 122
-123 -117
-123 120
117 -120 123
-124 -122
-124 -123
122 123 124
-125 -117
-125 -120
117 120 125
-126 -121
-126 -125
121 125 126
-127 -21
-127 22
21 -22 127
-128 21
-128 -22
-21 22 128
-129 -127
-129 -128
127 128 129
-130 21
-130 22
-21 -22 130
-131 126
-131 -129
-126 129 131
-132 -126
-132 129
126 -129 132
-133 -131
-133 -132
131 132 133
-134 -126
-134 -129
126 129 134
-135 -130
-135 -134
130 134 135
-136 -22
-136 23
22 -23 136
-137 22
-137 -23
-22 23 137
-138 -136
-138 -137
136 137 138
-139 22
-139 23
-22 -23 139
-140 135
-140 -138
-135 138 140
-141 -135
-141 138
135 -138 141
-142 -140
-142 -141
140 141 142
-143 -135
-143 -138
135 138 143
-144 -139
-144 -143
139 143 144
-145 -23
-145 24
23 -24 145
-146 23
-146 -24
-23 24 146
-147 -145
-147 -146
145 146 147
-148 23
-148 24
-23 -24 148
-149 144
-149 -147
-144 147 149
-150 -144
-150 147
144 -147 150
-151 -149
-151 -150
149 150 151
-152 -144
-152 -147
144 147 152
-153 -148
-153 -152
148 152 153
-154 11
-154 -43
-11 43 154
-155 -11
-155 13
11 -13 155
-156 -154
-156 -155
154 155 156
-157 11
-157 -52
-11 52 157
-158 -11
-158 14
11 -14 158
-159 -157
-159 -158
157 158 159
-160 11
-160 -61
-11 61 160
-161 -11
-161 15
11 -15 161
-162 -160
-162 -161
160 161 162
-163 11
-163 -70
-11 70 163
-164 -11
-164 16
11 -16 164
-165 -163
-165 -164
163 164 165
-166 11
-166 -79
-11 79 166
-167 -11
-167 17
11 -17 167
-168 -166
-168 -167
166 167 168
-169 11
-169 -88
-11 88 169
-170 -11
-170 18
11 -18 170
-171 -169
-171 -170
169 170 171
-172 11
-172 -97
-11 97 172
-173 -11
-173 19
11 -19 173
-174 -172
-174 -173
172 173 174
-175 11
-175 -106
-11 106 175
-176 -11
-176 20
11 -20 176
-177 -175
-177 -176
175 176 177
-178 11
-178 -115
-11 115 178
-179 -11
-179 21
11 -21 179
-180 -178
-180 -179
178 179 180
-181 11
-181 -124
-11 124 181
-182 -11
-182 22
11 -22 182
-183 -181
-183 -182
181 182 183
-184 11
-184 -133
-11 133 184
-185 -11
-185 23
11 -23 185
-186 -184
-186 -185
184 185 186
-187 11
-187 -142
-11 142 187
-188 -11
-188 24
11 -24 188
-189 -187
-189 -188
187 188 189
-190 11
-190 -151
-11 151 190
-191 1
-191 36
-1 -36 191
-192 -36
-192 37
36 -37 192
-193 -191
-193 -192
191 192 193
-194 2
-194 36
-2 -36 194
-195 -36
-195 -156
36 156 195
-196 -194
-196 -195
194 195 196
-197 3
-197 36
-3 -36 197
-198 -36
-198 -159
36 159 198
-199 -197
-199 -198
197 198 199
-200 4
-200 36
-4 -36 200
-201 -36
-201 -162
36 162 201
-202 -200
-202 -201
200 201 202
-203 5
-203 36
-5 -36 203
-204 -36
-204 -165
36 165 204
-205 -203
-205 -204
203 204 205
-206 6
-206 36
-6 -36 206
-207 -36
-207 -168
36 168 207
-208 -206
-208 -207
206 207 208
-209 7
-209 36
-7 -36 209
-210 -36
-210 -171
36 171 210
-211 -209
-211 -210
209 210 211
-212 8
-212 36
-8 -36 212
-213 -36
-213 -174
36 174 213
-214 -212
-214 -213
212 213 214
-215 9
-215 36
-9 -36 215
-216 -36
-216 -177
36 177 216
-217 -215
-217 -216
215 216 217
-218 10
-218 36
-10 -36 218
-219 -36
-219 -180
36 180 219
-220 -218
-220 -219
218 219 220
-221 -36
-221 -183
36 183 221
-222 -36
-222 -186
36 186 222
-223 -36
-223 -189
36 189 223
-224 -36
-224 190
36 -190 224
-225 -24
-225 153
24 -153 225
-226 11
-226 -225
-11 225 226
226
